109266
54,41,24,68,14,60,5,78,27,7,82,52,58,67,43,21,4,18,30,23,47,20,70,65,35,25,69,61,79,44,45,53,12,17,36,72,63,0,9,28,13,75,66,19,8,76,16,57,73,31,39,10,15,32,26,6,55,50,71,80,46,59,42,1,29,34,37,74,81,64,49,3,62,38,51,40,77,48,33,56,2,11,22,